\ Model SP_copy
\ LP format - for model browsing. Use MPS format to capture full model detail.
Minimize
  + 328.0572 Constant
Subject To
 C5_new_nj_iff_facility_is_open(1,3,9): - r(1,3,9) + n(1,3,9) <= 0
Bounds
 r(1,3,9) = 0
 n(1,3,9) >= 0.9311111111111111
 Constant = 1
Binaries
 r(1,3,9)
End
